
Gurobi 8.1.1 (win64) logging started 11/25/19 22:50:41

Changed value of parameter LogFile to logs/full/qp/full-07-30-0.log
   Prev: gurobi.log  Default: 
Changed value of parameter LogToConsole to 0
   Prev: 1  Min: 0  Max: 1  Default: 1
Changed value of parameter TimeLimit to 3600.0
   Prev: 1e+100  Min: 0.0  Max: 1e+100  Default: 1e+100
Optimize a model with 1 rows, 555 columns and 1 nonzeros
Model has 21 quadratic constraints
Variable types: 0 continuous, 555 integer (555 binary)
Coefficient statistics:
  Matrix range     [1e+00, 1e+00]
  QMatrix range    [1e+00, 1e+00]
  Objective range  [1e+00, 1e+00]
  Bounds range     [1e+00, 1e+00]
  RHS range        [1e+00, 1e+00]
  QRHS range       [1e+00, 1e+00]
Found heuristic solution: objective 555.0000000
Presolve removed 1 rows and 1 columns
Presolve time: 0.01s
Presolved: 0 rows, 554 columns, 0 nonzeros
Variable types: 0 continuous, 554 integer (554 binary)

Root relaxation: objective 1.000000e+00, 0 iterations, 0.00 seconds

    Nodes    |    Current Node    |     Objective Bounds      |     Work
 Expl Unexpl |  Obj  Depth IntInf | Incumbent    BestBd   Gap | It/Node Time

     0     0    2.00000    0    2  555.00000    2.00000   100%     -    0s
H    0     0                      11.0000000    2.00000  81.8%     -    0s
     0     0    2.00000    0    2   11.00000    2.00000  81.8%     -    0s
     0     2    2.00000    0    2   11.00000    2.00000  81.8%     -    0s
   194    94    2.00000   36    -   11.00000    2.00000  81.8%   1.1    5s
   290   135    2.00000   58    2   11.00000    2.00000  81.8%   1.0   10s
   390   183    2.00000   84    2   11.00000    2.00000  81.8%   1.0   16s
   443   209    2.00000   96    -   11.00000    2.00000  81.8%   1.0   20s
   522   253    3.00000  140    -   11.00000    2.00000  81.8%   1.0   25s
H  526   255                      10.0000000    2.00000  80.0%   1.0   25s
   562   261    2.00000  126    -   10.00000    2.00000  80.0%   1.0   30s
   637   289    2.00000  139    2   10.00000    2.00000  80.0%   1.0   36s
   664   317    2.00000  146    2   10.00000    2.00000  80.0%   1.0   40s
   725   343    2.00000  158    -   10.00000    2.00000  80.0%   1.0   47s
   747   358    2.00000  161    -   10.00000    2.00000  80.0%   1.0   51s
   781   371    2.00000  170    2   10.00000    2.00000  80.0%   1.0   55s
   827   392    2.00000  181    -   10.00000    2.00000  80.0%   1.0   64s
   858   409    2.00000  188    -   10.00000    2.00000  80.0%   1.0   68s
   883   426    2.00000  195    2   10.00000    2.00000  80.0%   1.0   73s
   920   438    2.00000  205    2   10.00000    2.00000  80.0%   1.0   78s
   953   455    2.00000  213    2   10.00000    2.00000  80.0%   1.0   83s
   984   473    2.00000  220    2   10.00000    2.00000  80.0%   1.0   88s
  1020   489    2.00000  229    2   10.00000    2.00000  80.0%   1.0   94s
  1054   506    2.00000  237    -   10.00000    2.00000  80.0%   1.0   99s
  1080   523    2.00000  244    -   10.00000    2.00000  80.0%   1.0  106s
  1122   536    2.00000  255    2   10.00000    2.00000  80.0%   1.0  112s
  1156   557    2.00000  263    2   10.00000    2.00000  80.0%   1.0  119s
  1188   573    2.00000  271    -   10.00000    2.00000  80.0%   1.0  126s
  1232   588    2.00000  282    2   10.00000    2.00000  80.0%   1.0  132s
  1260   612    2.00000  288    2   10.00000    2.00000  80.0%   1.0  139s
  1291   626    2.00000  296    -   10.00000    2.00000  80.0%   1.0  147s
  1336   641    2.00000  307    -   10.00000    2.00000  80.0%   1.0  154s
  1364   666    3.00000  358    -   10.00000    2.00000  80.0%   1.0  155s
  1375   662    2.00000  316    -   10.00000    2.00000  80.0%   1.0  162s
  1413   682    2.00000  325    -   10.00000    2.00000  80.0%   1.0  169s
  1447   701    2.00000  334    -   10.00000    2.00000  80.0%   1.0  177s
  1488   718    2.00000  345    -   10.00000    2.00000  80.0%   1.0  186s
  1529   738    2.00000  356    2   10.00000    2.00000  80.0%   1.0  194s
  1569   760    2.00000  366    2   10.00000    2.00000  80.0%   1.0  203s
H 1604   788                       9.0000000    2.00000  77.8%   1.0  203s
  1610   780    2.00000  376    2    9.00000    2.00000  77.8%   1.0  212s
H 1633   792                       8.0000000    2.00000  75.0%   1.0  212s
  1656   800    2.00000  388    2    8.00000    2.00000  75.0%   1.0  220s
  1706   814    2.00000  400    2    8.00000    2.00000  75.0%   1.0  231s
  1802   916    3.00000  299    2    8.00000    2.00000  75.0%   1.0  369s
  1804   917    2.14523  268 11215    8.00000    2.14523  73.2%   1.0 1220s
  1806   920    3.00000  317    2    8.00000    2.14523  73.2%  97.8 1416s
  1808   921    3.00000    4 11053    8.00000    2.14741  73.2%  97.7 2410s

Cutting planes:
  Gomory: 1
  Zero half: 5

Explored 1808 nodes (567323 simplex iterations) in 3600.40 seconds
Thread count was 4 (of 4 available processors)

Solution count 5: 8 9 10 ... 555

Time limit reached
Best objective 8.000000000000e+00, best bound 3.000000000000e+00, gap 62.5000%
Warning: Q constraint 0 doesn't have a name
